Optimal - objective value -88.85000000
     18 C25                    1                     -3
     30 C44                    1                     -3
     34 C48                    1                   -0.6
     52 C74                    1                     -1
     60 C85                    1                     -3
     75 C109                   1                     -3
     95 C145                   1                     -3
    102 C157                   1                   -1.5
    108 C169                   1                     -1
    115 C185                   1                   -1.5
    126 C203                   1                     -3
    129 C209                   1                     -1
    135 C220                   1                     -3
    137 C228                   1                   -1.5
    151 C254                   1                     -3
    155 C267                   1                     -1
    171 C302                   1                     -3
    175 C323                   1                     -1
    181 C338                   1                   -1.5
    182 C344                   1                     -3
    190 C361                   1                     -3
    204 C392                   1                   -1.5
    206 C397                   1                   -1.5
    208 C402                   1                  -0.75
    213 C411                   1                     -3
    231 C443                   1                     -3
    244 C469                   1                   -1.5
    248 C476                   1                     -3
    265 C514                   1                   -1.5
    266 C521                   1                     -3
    276 C544                   1                     -3
    298 C590                   1                   -1.5
    302 C610                   1                     -3
    306 C614                   1                  -0.75
    310 C626                   1                     -3
    322 C649                   1                   -1.5
    329 C662                   1                     -3
    343 C693                   1                     -3
    349 C704                   1                  -0.75
    357 C1036                  6                      0
    358 C721                   1                      0
    360 C722                   1                      0
    379 C728                   1                      0
    381 C729                   1                      0
    392 C734                   1                      0
    410 C740                   1                      0
    412 C633                   1                      0
    414 C741                   1                      0
    422 C745                   1                      0
    430 C640                   1                      0
    431 C748                   1                      0
    433 C713                   1                      0
    434 C749                   1                      0
    448 C645                   1                      0
    450 C753                   1                      0
    460 C757                   1                      0
    463 C758                   1                      0
    472 C509                   1                      0
    474 C761                   1                      0
    478 C762                   1                      0
    497 C766                   1                      0
    504 C588                   1                      0
    505 C768                   1                      0
    509 C769                   1                      0
    512 C770                   1                      0
    517 C771                   1                      0
    528 C773                   1                      0
    546 C777                   1                      0
    551 C527                   1                      0
    554 C779                   1                      0
    573 C784                   1                      0
    578 C785                   1                      0
    581 C606                   1                      0
    583 C786                   1                      0
    601 C789                   1                      0
    605 C790                   1                      0
    612 C794                   1                      0
    620 C797                   1                      0
    632 C802                   1                      0
    634 C803                   1                      0
    643 C806                   1                      0
    644 C807                   1                      0
    649 C809                   1                      0
    670 C815                   1                      0
    676 C817                   1                      0
    685 C317                   1                      0
    686 C821                   1                      0
    703 C827                   1                      0
    705 C829                   1                      0
    708 C832                   1                      0
    712 C834                   1                      0
    722 C840                   1                      0
    726 C842                   1                      0
    728 C843                   1                      0
    759 C865                   1                      0
    762 C866                   1                      0
    771 C870                   1                      0
    784 C876                   1                      0
    785 C877                   1                      0
    787 C878                   1                      0
    790 C879                   1                      0
    800 C884                   1                      0
    806 C167                   1                      0
    807 C887                   1                      0
    811 C889                   1                      0
    822 C894                   1                      0
    828 C898                   1                      0
    834 C901                   1                      0
    835 C902                   1                      0
    839 C906                   1                      0
    845 C912                   1                      0
    846 C913                   1                      0
    847 C914                   1                      0
    848 C915                   1                      0
    853 C920                   1                      0
    856 C923                   1                      0
    858 C925                   1                      0
    863 C930                   1                      0
    867 C934                   1                      0
    870 C937                   1                      0
    871 C938                   1                      0
    875 C942                   1                      0
    881 C948                   1                      0
    882 C949                   1                      0
    883 C950                   1                      0
    884 C951                   1                      0
    889 C956                   1                      0
    892 C959                   1                      0
    894 C961                   1                      0
    899 C966                   1                      0
    903 C970                   1                      0
    973 C973                   1                      0
    974 C976                   1                      0
    975 C979                   1                      0
    976 C974                   1                      0
    977 C977                   1                      0
    978 C980                   1                      0
    979 C975                   1                      0
    980 C978                   1                      0
    981 C981                   1                     -1
    982 C982                   1                      0
    983 C985                   1                      0
    984 C988                   1                      0
    985 C983                   1                      0
    986 C986                   1                      0
    987 C989                   1                      0
    988 C984                   1                      0
    989 C987                   1                      0
    990 C990                   1                     -1
    991 C991                   1                      0
    992 C994                   1                      0
    993 C997                   1                      0
    994 C992                   1                      0
    995 C995                   1                      0
    996 C998                   1                      0
    997 C993                   1                      0
    998 C996                   1                      0
    999 C999                   1                     -1
   1000 C1000                  1                      0
   1001 C1003                  1                      0
   1003 C1001                  1                      0
   1006 C1002                  1                      0
   1009 C1009                  1                      0
   1010 C1012                  1                      0
   1011 C1015                  1                      0
   1012 C1010                  1                      0
   1013 C1013                  1                      0
   1014 C1016                  1                      0
   1015 C1011                  1                      0
   1016 C1014                  1                      0
   1017 C1017                  1                     -1
   1018 C1018                  1                      0
   1019 C1021                  1                      0
   1020 C1024                  1                      0
   1021 C1019                  1                      0
   1022 C1022                  1                      0
   1023 C1025                  1                      0
   1024 C1020                  1                      0
   1025 C1023                  1                      0
   1026 C1026                  1                     -1
   1027 C1027                  1                      0
   1028 C1030                  1                      0
   1029 C1033                  1                      0
   1030 C1028                  1                      0
   1031 C1031                  1                      0
   1032 C1034                  1                      0
   1033 C1029                  1                      0
   1034 C1032                  1                      0
   1035 C1035                  1                     -1
